NAME: I5205-n45-k6
COMMENT : (Fake et al, No of trucks: 6, Optimal value: )
TYPE : CVRP
DIMENSION : 45
EDGE_WEIGHT_TYPE : EUC_2D
CAPACITY : 13
NODE_COORD_SECTION
1 777 478
2 488 910
3 594 224
4 667 195
5 44 288
6 333 367
7 302 955
8 194 645
9 491 630
10 170 618
11 207 76
12 612 747
13 521 123
14 402 703
15 332 767
16 980 533
17 724 648
18 3 380
19 522 731
20 790 256
21 204 129
22 602 440
23 762 404
24 7 508
25 26 119
26 681 115
27 73 944
28 677 79
29 319 113
30 109 857
31 64 663
32 534 72
33 751 968
34 288 924
35 244 389
36 250 712
37 386 55
38 838 694
39 940 469
40 648 317
41 860 998
42 751 840
43 99 330
44 34 667
45 688 301
DEMAND_SECTION
1 0
2 2
3 1
4 2
5 2
6 2
7 2
8 2
9 1
10 1
11 1
12 2
13 2
14 1
15 1
16 2
17 2
18 2
19 2
20 1
21 2
22 1
23 1
24 1
25 2
26 2
27 1
28 2
29 2
30 1
31 2
32 2
33 1
34 2
35 1
36 1
37 1
38 2
39 1
40 2
41 1
42 2
43 1
44 2
45 2
DEPOT_SECTION
 1
 -1
 EOF 